113
0 105 104 65 14 38 8 47 40 49 
39 3 1 93 48 26 60 11 70 111 
77 112 32 63 88 68 54 29 67 44 
5 101 25 36 4 64 46 69 23 108 
9 110 92 85 58 52 78 13 94 61 
83 100 99 102 50 24 37 6 91 66 
79 106 74 20 89 73 84 80 7 35 
34 31 96 86 56 30 95 2 97 22 
51 107 28 103 19 71 45 109 12 98 
55 59 21 75 17 81 15 18 16 43 
90 33 42 53 62 10 27 41 87 72 
57 76 82 
